(set-logic ALL)
(declare-fun var0 () String)
(assert (str.in_re var0 (re.++ (re.union (re.* (str.to_re "00")) (re.* (str.to_re "1"))) (re.++ (re.+ (re.* (str.to_re "222"))) (re.++ (re.union (re.* (str.to_re "333")) (re.* (str.to_re "4"))) (re.++ (re.+ (re.* (str.to_re "5"))) (re.++ (re.* (re.* (str.to_re "666"))) (re.++ (re.* (re.+ (str.to_re "77"))) (re.++ (re.+ (re.* (str.to_re "88"))) (re.++ (re.+ (re.* (str.to_re "99"))) (re.++ (re.+ (re.union (str.to_re "aaa") (str.to_re "b"))) (re.++ (re.union (re.* (str.to_re "c")) (re.* (str.to_re "dd"))) (re.++ (re.union (re.union (str.to_re "ee") (str.to_re "ff")) (re.union (str.to_re "gg") (str.to_re "h"))) (re.++ (re.union (re.+ (str.to_re "iii")) (re.+ (str.to_re "j"))) (re.++ (re.* (re.+ (str.to_re "k"))) (re.++ (re.* (re.union (str.to_re "l") (str.to_re "mmm"))) (re.++ (re.* (re.union (str.to_re "n") (str.to_re "oo"))) (re.++ (re.union (re.* (str.to_re "p")) (re.* (str.to_re "qqq"))) (re.++ (re.* (re.+ (str.to_re "r"))) (re.++ (re.* (re.union (str.to_re "ss") (str.to_re "ttt"))) (re.++ (re.union (re.* (str.to_re "uuu")) (re.* (str.to_re "vvv"))) (re.++ (re.+ (re.union (str.to_re "ww") (str.to_re "xxx"))) (re.++ (re.+ (re.+ (str.to_re "yy"))) (re.++ (re.union (re.* (str.to_re "zzz")) (re.* (str.to_re "AA"))) (re.++ (re.+ (re.+ (str.to_re "B"))) (re.++ (re.union (re.* (str.to_re "CC")) (re.* (str.to_re "D"))) (re.++ (re.union (re.union (str.to_re "E") (str.to_re "FFF")) (re.union (str.to_re "GG") (str.to_re "HHH"))) (re.++ (re.* (re.union (str.to_re "I") (str.to_re "JJJ"))) (re.++ (re.union (re.union (str.to_re "K") (str.to_re "LL")) (re.union (str.to_re "MMM") (str.to_re "NN"))) (re.++ (re.+ (re.+ (str.to_re "OO"))) (re.++ (re.+ (re.union (str.to_re "PPP") (str.to_re "QQQ"))) (re.++ (re.union (re.+ (str.to_re "RRR")) (re.+ (str.to_re "S"))) (re.++ (re.+ (re.union (str.to_re "TT") (str.to_re "UU"))) (re.++ (re.union (re.union (str.to_re "VVV") (str.to_re "WWW")) (re.union (str.to_re "XXX") (str.to_re "YYY"))) (re.++ (re.+ (re.union (str.to_re "Z") (str.to_re "!"))) (re.++ (re.union (re.* (str.to_re """")) (re.* (str.to_re "###"))) (re.++ (re.+ (re.union (str.to_re "$") (str.to_re "%%%"))) (re.++ (re.+ (re.union (str.to_re "&&") (str.to_re "'''"))) (re.++ (re.union (re.+ (str.to_re "((")) (re.+ (str.to_re ")))"))) (re.++ (re.union (re.* (str.to_re "**")) (re.* (str.to_re "+"))) (re.++ (re.union (re.+ (str.to_re ",,,")) (re.+ (str.to_re "---"))) (re.++ (re.+ (re.union (str.to_re "...") (str.to_re "///"))) (re.++ (re.union (re.+ (str.to_re ":::")) (re.+ (str.to_re ";;;"))) (re.++ (re.union (re.union (str.to_re "<") (str.to_re "===")) (re.union (str.to_re ">") (str.to_re "???"))) (re.++ (re.+ (re.+ (str.to_re "@@@"))) (re.++ (re.+ (re.union (str.to_re "[") (str.to_re "\\"))) (re.++ (re.* (re.+ (str.to_re "]"))) (re.++ (re.union (re.union (str.to_re "^^") (str.to_re "_")) (re.union (str.to_re "```") (str.to_re "{{{"))) (re.++ (re.+ (re.* (str.to_re "||"))) (re.++ (re.* (re.* (str.to_re "}"))) (re.++ (re.union (re.+ (str.to_re "~~~")) (re.+ (str.to_re "00"))) (re.++ (re.union (re.union (str.to_re "111") (str.to_re "2")) (re.union (str.to_re "333") (str.to_re "4"))) (re.++ (re.* (re.+ (str.to_re "55"))) (re.++ (re.* (re.+ (str.to_re "666"))) (re.++ (re.+ (re.* (str.to_re "777"))) (re.++ (re.+ (re.+ (str.to_re "888"))) (re.++ (re.union (re.union (str.to_re "999") (str.to_re "a")) (re.union (str.to_re "b") (str.to_re "ccc"))) (re.++ (re.+ (re.* (str.to_re "ddd"))) (re.++ (re.* (re.+ (str.to_re "eee"))) (re.++ (re.union (re.union (str.to_re "f") (str.to_re "gg")) (re.union (str.to_re "h") (str.to_re "iii"))) (re.++ (re.union (re.* (str.to_re "jj")) (re.* (str.to_re "k"))) (re.++ (re.union (re.* (str.to_re "ll")) (re.* (str.to_re "mmm"))) (re.++ (re.* (re.* (str.to_re "n"))) (re.++ (re.* (re.* (str.to_re "oo"))) (re.++ (re.* (re.* (str.to_re "pp"))) (re.++ (re.union (re.union (str.to_re "qq") (str.to_re "r")) (re.union (str.to_re "ss") (str.to_re "tt"))) (re.++ (re.* (re.* (str.to_re "uuu"))) (re.++ (re.+ (re.union (str.to_re "vvv") (str.to_re "ww"))) (re.++ (re.+ (re.+ (str.to_re "x"))) (re.++ (re.* (re.* (str.to_re "yyy"))) (re.++ (re.union (re.* (str.to_re "z")) (re.* (str.to_re "AAA"))) (re.++ (re.* (re.* (str.to_re "BBB"))) (re.++ (re.* (re.* (str.to_re "C"))) (re.++ (re.union (re.* (str.to_re "D")) (re.* (str.to_re "E"))) (re.++ (re.+ (re.* (str.to_re "FF"))) (re.++ (re.+ (re.* (str.to_re "G"))) (re.++ (re.* (re.union (str.to_re "HHH") (str.to_re "I"))) (re.++ (re.* (re.* (str.to_re "J"))) (re.++ (re.* (re.union (str.to_re "KK") (str.to_re "L"))) (re.++ (re.union (re.* (str.to_re "M")) (re.* (str.to_re "NNN"))) (re.++ (re.* (re.+ (str.to_re "OOO"))) (re.++ (re.* (re.+ (str.to_re "PPP"))) (re.++ (re.+ (re.* (str.to_re "QQQ"))) (re.++ (re.union (re.+ (str.to_re "RR")) (re.+ (str.to_re "S"))) (re.++ (re.+ (re.* (str.to_re "T"))) (re.++ (re.+ (re.+ (str.to_re "U"))) (re.++ (re.+ (re.+ (str.to_re "VVV"))) (re.++ (re.* (re.+ (str.to_re "WWW"))) (re.++ (re.union (re.union (str.to_re "X") (str.to_re "YY")) (re.union (str.to_re "Z") (str.to_re "!!!"))) (re.++ (re.* (re.union (str.to_re """") (str.to_re "##"))) (re.++ (re.union (re.* (str.to_re "$$$")) (re.* (str.to_re "%"))) (re.++ (re.+ (re.union (str.to_re "&") (str.to_re "''"))) (re.++ (re.union (re.* (str.to_re "(")) (re.* (str.to_re ")"))) (re.++ (re.union (re.+ (str.to_re "**")) (re.+ (str.to_re "+++"))) (re.++ (re.+ (re.union (str.to_re ",,,") (str.to_re "--"))) (re.++ (re.+ (re.* (str.to_re "..."))) (re.++ (re.+ (re.union (str.to_re "//") (str.to_re "::"))) (re.++ (re.+ (re.* (str.to_re ";;"))) (re.++ (re.+ (re.* (str.to_re "<<"))) (re.++ (re.* (re.union (str.to_re "=") (str.to_re ">>>"))) (re.++ (re.+ (re.union (str.to_re "??") (str.to_re "@@@"))) (re.++ (re.union (re.+ (str.to_re "[[")) (re.+ (str.to_re "\\\\\\"))) (re.++ (re.+ (re.* (str.to_re "]"))) (re.++ (re.union (re.+ (str.to_re "^^^")) (re.+ (str.to_re "__"))) (re.++ (re.* (re.union (str.to_re "`") (str.to_re "{{"))) (re.++ (re.union (re.union (str.to_re "|||") (str.to_re "}}}")) (re.union (str.to_re "~~~") (str.to_re "000"))) (re.++ (re.* (re.* (str.to_re "11"))) (re.++ (re.* (re.union (str.to_re "222") (str.to_re "33"))) (re.++ (re.+ (re.+ (str.to_re "444"))) (re.++ (re.union (re.union (str.to_re "5") (str.to_re "6")) (re.union (str.to_re "777") (str.to_re "888"))) (re.++ (re.* (re.+ (str.to_re "99"))) (re.++ (re.union (re.union (str.to_re "a") (str.to_re "bb")) (re.union (str.to_re "c") (str.to_re "dd"))) (re.++ (re.* (re.+ (str.to_re "ee"))) (re.++ (re.union (re.* (str.to_re "fff")) (re.* (str.to_re "gg"))) (re.++ (re.union (re.* (str.to_re "hhh")) (re.* (str.to_re "iii"))) (re.++ (re.+ (re.union (str.to_re "jj") (str.to_re "k"))) (re.++ (re.* (re.+ (str.to_re "lll"))) (re.++ (re.union (re.+ (str.to_re "m")) (re.+ (str.to_re "nn"))) (re.++ (re.* (re.+ (str.to_re "ooo"))) (re.++ (re.* (re.* (str.to_re "pp"))) (re.++ (re.* (re.+ (str.to_re "qqq"))) (re.++ (re.+ (re.+ (str.to_re "rrr"))) (re.++ (re.union (re.* (str.to_re "s")) (re.* (str.to_re "ttt"))) (re.++ (re.* (re.+ (str.to_re "uu"))) (re.++ (re.+ (re.* (str.to_re "v"))) (re.++ (re.union (re.* (str.to_re "www")) (re.* (str.to_re "xxx"))) (re.++ (re.* (re.+ (str.to_re "yy"))) (re.++ (re.* (re.* (str.to_re "zz"))) (re.union (re.+ (str.to_re "A")) (re.+ (str.to_re "B")))))))))))))))))))))))))))))))))))))))))))))))))))))))))))))))))))))))))))))))))))))))))))))))))))))))))))))))))))))))))))))))))))
(check-sat)